
Gurobi 13.0.1 (win64, gurobi_cl) logging started Sun Mar 22 09:31:40 2026

Set parameter Username
Set parameter LicenseID to value 2795518
Set parameter LogFile to value "gurobi.log"
Using license file C:\Users\Lenny\gurobi.lic
Academic license - for non-commercial use only - expires 2027-03-21
